r = [
0,71,132,73,23,65,121,120,33,96,3,69,102,146,143,31,22,106,151,73,133,13,148,145,147,10,0
];
p = [
0,9,28,19,27,13,19,7,10,10,10,9,4,6,3,25,30,1,2,16,4,8,3,9,30,22,0
];
e = [
0,19,4,17,5,20,9,12,6,6,19,20,15,14,20,7,13,14,17,13,13,1,17,1,3,3,0
];
d = [
0,267,379,150,100,171,146,309,212,245,146,138,345,178,346,56,233,302,264,154,340,111,192,263,177,303,404
];
d_bar = [
0,275,404,167,124,183,163,315,221,254,155,146,349,183,349,79,260,303,266,168,344,118,195,271,204,323,404
];
w = [
0,2.375,0.16,1,0.208333333,1.666666667,0.529411765,2,0.666666667,0.666666667,2.111111111,2.5,3.75,2.8,6.666666667,0.304347826,0.481481481,14,8.5,0.928571429,3.25,0.142857143,5.666666667,0.125,0.111111111,0.15,0
];
